H2O                                     
   1.0000000000000000     
    10.0000000000000000    0.0000000000000000    0.0000000000000000
     0.0000000000000000   10.0000000000000000    0.0000000000000000
     0.0000000000000000    0.0000000000000000   10.0000000000000000
   O    C 
     1     1
Selective dynamics
Direct
  0.5000000000000000  0.5000000000000000  0.5000000000000000   F   F   F
  0.5000000000000000  0.5735532570963274  0.4123390625663544   T   T   T

  0.00000000E+00  0.00000000E+00  0.00000000E+00
  0.00000000E+00  0.00000000E+00  0.00000000E+00
