H2O                                                                        
1.0000000
  10.0000000   0.0000000   0.0000000
  0.0000000   10.0000000   0.0000000
  0.0000000    0.0000000  10.0000000
   O    C
   1    1
Selective dynamics
Direct
  0.5000000   0.5000000   0.5000000 F F F
  0.5000000   0.5707066   0.4157351 T T T
